8,2	0,0	13,3	17,3	0,0	0,0	0,0	0,0	0,0	12,4
7,3	6,9	0,0	6,2	6,7	0,0	0,0	19,1	0,0	0,0
0,0	0,0	7,0	0,0	19,0	6,9	0,0	0,0	13,2	0,0
14,1	0,0	11,8	0,0	0,0	0,0	8,6	0,0	0,0	0,0
0,0	19,6	0,0	18,7	13,5	0,0	0,0	6,2	0,0	0,0
0,0	9,3	8,6	0,0	13,1	13,4	0,0	0,0	16,2	0,0
0,0	14,5	0,0	10,2	0,0	0,0	7,9	0,0	0,0	12,5
12,2	0,0	9,3	0,0	0,0	0,0	0,0	0,0	0,0	6,3
0,0	10,5	0,0	7,9	9,9	0,0	0,0	17,2	0,0	0,0
0,0	0,0	6,7	0,0	0,0	12,8	9,4	0,0	0,0	10,7
									
4,2	4,1	5,0	4,9	4,4	2,6	3,4	4,8	4,8	3,1
